outputs/case_29.model.txt
is_bond_insurance = False
is_liability_insurance = True
is_agent = True
is_broker = False
is_not_agent_broker_or_notary = False
insurance_policy_electronic = False
contact_phone_provided = False
contact_email_provided = False
shareholding_disclosed = False
shareholding_over_10_percent = False
agent_understanding_done = False
exempted_by_authority = True
fee_charged = False
fee_disclosed = False
bank_broker_compliance = True
bank_agent_compliance = False
violate_agent_or_broker_rules = True
violate_finance_or_business_management = True
violate_broker_duty = True
related_insurance_purchased = True
broker_shareholding_disclosure = True
broker_duty_of_care_and_fidelity = True
license_permitted = True
related_insurance_type_ok = True
broker_fidelity_duty = True
agent_required_documents_compliance = True
agent_company_and_bank_document_verification = True
guarantee_deposited = True
broker_duty_management_rules_complied = True
document_retention_compliance = True
management_rules_complied = True
bank_permit_and_separate_compliance = True
violation_agent_or_broker_rules = True
written_report_provided = True
internal_operation_rules_compliance = True
broker_duty_of_care_and_fidelity_management_rules = True
agent_documents_compliant = True
electronic_policy_contact_info_provided = True
internal_rules_compliance = True
broker_understanding_and_report_provided = True
broker_duty_of_care = True
broker_written_report_and_fee_disclosure = True
agent_license_and_guarantee_ok = True
violation_finance_or_business_management = True
agent_understanding_and_document_signing = True
internal_operation_rules_include_elderly_protection = True
documents_retained = True
basic_info_understood = True
internal_operation_rules_followed = True
penalty = False
violation_broker_duty = True
bank_permitted = True
elderly_protection_included = True
documents_verified = True
license_issued = True